interface iblocking
{
  in bool request_reply ();
  in void request_notify ();
  out void accept ();
  out void reject ();

  behavior
  {
    on request_reply: reply (true);
    on request_reply: reply (false);
    on request_notify: accept;
    on request_notify: reject;
  }
}

interface iasynchronous
{
  in void request ();
  out void accept ();
  out void reject ();
  behavior
  {
    bool is_considering = false;
    on request: is_considering = true;
    [is_considering] on inevitable: {accept; is_considering = false;}
    [is_considering] on inevitable: {reject; is_considering = false;}
  }
}

component ca
{
  provides iblocking pp;
  requires iasynchronous rp;
  behavior
  {
    bool reply_requested = true;
    on pp.request_reply (): blocking {reply_requested = true; rp.request ();}
    on pp.request_notify (): blocking {reply_requested = false; rp.request ();}
    [reply_requested] on rp.accept (): pp.reply (true);
    [!reply_requested] on rp.accept (): {pp.accept (); pp.reply ();}
    [reply_requested] on rp.reject (): {bool b = false; pp.reply (b);}
    [!reply_requested] on rp.reject (): {pp.reject (); pp.reply ();}
  }
}
